
<<< setup


<<< generate

Version identifier: 22.1.1.0 | 2022-11-28 | 9160aff4d
CPXPARAM_TimeLimit                               1800
Found incumbent of value 0.000000 after 0.01 sec. (18.51 ticks)
Tried aggregator 1 time.
MIP Presolve eliminated 989 rows and 0 columns.
MIP Presolve modified 974168 coefficients.
Reduced MIP has 608855 rows, 488566 columns, and 2191878 nonzeros.
Reduced MIP has 487578 binaries, 988 generals, 0 SOSs, and 0 indicators.
Presolve time = 0.57 sec. (1006.33 ticks)
Probing time = 0.30 sec. (136.83 ticks)
Tried aggregator 1 time.
Detecting symmetries...
Elapsed time for symmetry detection = 16.30 sec. (10003.35 ticks)
Elapsed time for symmetry detection = 32.79 sec. (20005.38 ticks)
Elapsed time for symmetry detection = 48.13 sec. (30006.59 ticks)
Elapsed time for symmetry detection = 62.50 sec. (40008.25 ticks)
Elapsed time for symmetry detection = 76.17 sec. (50012.65 ticks)
Found 1.656721e+626 symmetric permutations.
Reduced MIP has 608855 rows, 488566 columns, and 2191878 nonzeros.
Reduced MIP has 487578 binaries, 988 generals, 0 SOSs, and 0 indicators.
Presolve time = 82.24 sec. (55247.93 ticks)
Probing time = 0.22 sec. (136.58 ticks)
Clique table members: 12448.
MIP emphasis: balance optimality and feasibility.
MIP search method: dynamic search.
Parallel mode: deterministic, using up to 8 threads.
Root relaxation solution time = 94.20 sec. (75801.82 ticks)

        Nodes                                         Cuts/
   Node  Left     Objective  IInf  Best Integer    Best Bound    ItCnt     Gap

*     0+    0                            0.0000    80000.0000              --- 
*     0+    0                         8464.0000    80000.0000           845.18%
      0     0    80000.0000 125736     8464.0000    80000.0000   218081  845.18%
*     0+    0                        13045.0000    80000.0000           513.26%
      0     0    80000.0000 50252    13045.0000    Cuts: 2768   230632  513.26%
      0     0    80000.0000 50021    13045.0000    Cuts: 5582   240272  513.26%
      0     0    80000.0000 48194    13045.0000     Cuts: 742   242921  513.26%
      0     0    80000.0000 48060    13045.0000     Cuts: 515   244079  513.26%
      0     0    80000.0000 47972    13045.0000     Cuts: 442   245254  513.26%
      0     0    80000.0000 47707    13045.0000     Cuts: 418   246465  513.26%
      0     0    80000.0000 47638    13045.0000     Cuts: 385   247686  513.26%
      0     0    80000.0000 47486    13045.0000     Cuts: 423   248504  513.26%
      0     0    80000.0000 47312    13045.0000     Cuts: 311   249648  513.26%
      0     0    80000.0000 47372    13045.0000     Cuts: 394   250530  513.26%
      0     0    80000.0000 28932    13045.0000     Cuts: 270   251626  513.26%
      0     0    80000.0000 28842    13045.0000    Cuts: 1186   254560  513.26%
      0     0    80000.0000 28484    13045.0000     Cuts: 422   255692  513.26%
      0     0    80000.0000 28214    13045.0000     Cuts: 396   256726  513.26%
      0     0    80000.0000 28168    13045.0000     Cuts: 302   257611  513.26%
      0     0    80000.0000 27850    13045.0000     Cuts: 381   258615  513.26%
      0     0    80000.0000 27440    13045.0000     Cuts: 298   259962  513.26%
      0     0    80000.0000 27132    13045.0000     Cuts: 316   260787  513.26%
      0     0    80000.0000 26998    13045.0000     Cuts: 294   261871  513.26%
      0     0    80000.0000 27037    13045.0000     Cuts: 223   263144  513.26%
Heuristic still looking.
Heuristic still looking.
      0     2    80000.0000 19344    13045.0000    80000.0000   263144  513.26%
Elapsed time = 1194.58 sec. (1776345.80 ticks, tree = 0.02 MB, solutions = 3)
      1     3    80000.0000 19152    13045.0000    80000.0000   263277  513.26%
      2     3    80000.0000 19991    13045.0000    80000.0000   274550  513.26%
      3     4    80000.0000 19900    13045.0000    80000.0000   272659  513.26%
      4     6    80000.0000 19938    13045.0000    80000.0000   285486  513.26%
      5     7    80000.0000 20088    13045.0000    80000.0000   287610  513.26%
      6     4    80000.0000 19904    13045.0000    80000.0000   274661  513.26%
      7     8    80000.0000 19376    13045.0000    80000.0000   288451  513.26%
      8     9    80000.0000 19369    13045.0000    80000.0000   299575  513.26%
      9     9    80000.0000 19878    13045.0000    80000.0000   303372  513.26%
     10    10    80000.0000 19561    13045.0000    80000.0000   304458  513.26%
Elapsed time = 1361.77 sec. (1882821.31 ticks, tree = 0.21 MB, solutions = 3)
     11    13    80000.0000 19423    13045.0000    80000.0000   309908  513.26%
     13    15    80000.0000 19131    13045.0000    80000.0000   310030  513.26%
     15     7    80000.0000 19936    13045.0000    80000.0000   285487  513.26%
     17    14    80000.0000 19516    13045.0000    80000.0000   309634  513.26%
     18    11    80000.0000 19861    13045.0000    80000.0000   303878  513.26%
     19    16    80000.0000 19845    13045.0000    80000.0000   313695  513.26%
     20    15    80000.0000 19452    13045.0000    80000.0000   310110  513.26%
     21    15    80000.0000 19187    13045.0000    80000.0000   311752  513.26%
     23    17    80000.0000 19787    13045.0000    80000.0000   314930  513.26%
     25    17    80000.0000 19174    13045.0000    80000.0000   312206  513.26%
Elapsed time = 1412.55 sec. (1898582.92 ticks, tree = 0.59 MB, solutions = 3)
     26    18    80000.0000 19113    13045.0000    80000.0000   312224  513.26%
     27    18    80000.0000 20190    13045.0000    80000.0000   317201  513.26%
     28    19    80000.0000 19738    13045.0000    80000.0000   317209  513.26%
     29    20    80000.0000 19321    13045.0000    80000.0000   317592  513.26%
     30    12    80000.0000 18841    13045.0000    80000.0000   310955  513.26%
     31    17    80000.0000 18764    13045.0000    80000.0000   321376  513.26%
     33    19    80000.0000 18736    13045.0000    80000.0000   321401  513.26%
     35    21    80000.0000 18689    13045.0000    80000.0000   321422  513.26%
     36    22    80000.0000 18887    13045.0000    80000.0000   321754  513.26%
     38    17    80000.0000 17820    13045.0000    80000.0000   315764  513.26%
Elapsed time = 1455.86 sec. (1919634.09 ticks, tree = 5.16 MB, solutions = 3)
     39    19    80000.0000 18817    13045.0000    80000.0000   317173  513.26%
     40    21    80000.0000 17750    13045.0000    80000.0000   327479  513.26%
     41    26    80000.0000 18843    13045.0000    80000.0000   334145  513.26%
     42    27    80000.0000 18283    13045.0000    80000.0000   335569  513.26%
     43    28    80000.0000 18228    13045.0000    80000.0000   336281  513.26%
     44    29    80000.0000 17970    13045.0000    80000.0000   336572  513.26%
     46    32    80000.0000 19040    13045.0000    80000.0000   344471  513.26%
     47     6    80000.0000 19765    13045.0000    80000.0000   286584  513.26%
     48    33    80000.0000 19126    13045.0000    80000.0000   345845  513.26%
     49    17    80000.0000 19107    13045.0000    80000.0000   310189  513.26%
Elapsed time = 1542.69 sec. (1952894.22 ticks, tree = 13.74 MB, solutions = 3)
     50    30    80000.0000 17602    13045.0000    80000.0000   339627  513.26%
     51    38    80000.0000 19029    13045.0000    80000.0000   350487  513.26%
     52    43    80000.0000 18779    13045.0000    80000.0000   355663  513.26%
     54    39    80000.0000 18987    13045.0000    80000.0000   351911  513.26%
     55    49    80000.0000 18918    13045.0000    80000.0000   367955  513.26%
     57    51    80000.0000 18570    13045.0000    80000.0000   368225  513.26%
     58    47    80000.0000 19051    13045.0000    80000.0000   364928  513.26%
     59    52    80000.0000 17890    13045.0000    80000.0000   370001  513.26%
     60    53    80000.0000 17213    13045.0000    80000.0000   370192  513.26%
     62    44    80000.0000 18307    13045.0000    80000.0000   358185  513.26%
Elapsed time = 1645.97 sec. (1990231.94 ticks, tree = 34.26 MB, solutions = 3)
     65    56    80000.0000 16951    13045.0000    80000.0000   370628  513.26%
     66    57    80000.0000 16769    13045.0000    80000.0000   371251  513.26%
     67    58    80000.0000 16615    13045.0000    80000.0000   371645  513.26%
     70    60    80000.0000 18332    13045.0000    80000.0000   375451  513.26%
     71    60    80000.0000 16651    13045.0000    80000.0000   372005  513.26%
     73    49    80000.0000 17468    13045.0000    80000.0000   368969  513.26%
     75    63    80000.0000 17197    13045.0000    80000.0000   381717  513.26%
     76    64    80000.0000 17123    13045.0000    80000.0000   381774  513.26%
     77    61    80000.0000 16800    13045.0000    80000.0000   373126  513.26%
     80    66    80000.0000 17121    13045.0000    80000.0000   382290  513.26%
Elapsed time = 1676.81 sec. (2007556.53 ticks, tree = 55.98 MB, solutions = 3)
     82    64    80000.0000 16667    13045.0000    80000.0000   374202  513.26%
     84    68    80000.0000 17083    13045.0000    80000.0000   383221  513.26%
     85    33    80000.0000 21137    13045.0000    80000.0000   358825  513.26%
     86    71    80000.0000 19331    13045.0000    80000.0000   396797  513.26%
     87    72    80000.0000 19266    13045.0000    80000.0000   396989  513.26%
     88    73    80000.0000 19164    13045.0000    80000.0000   397134  513.26%
     90    63    80000.0000 16034    13045.0000    80000.0000   377964  513.26%
     92    76    80000.0000 16511    13045.0000    80000.0000   399192  513.26%
     93    77    80000.0000 16491    13045.0000    80000.0000   399430  513.26%
     94    78    80000.0000 16513    13045.0000    80000.0000   399573  513.26%
Elapsed time = 1723.32 sec. (2025746.87 ticks, tree = 62.41 MB, solutions = 3)
     95    79    80000.0000 15869    13045.0000    80000.0000   400788  513.26%
     97    82    80000.0000 16946    13045.0000    80000.0000   402188  513.26%
     99    75    80000.0000 17650    13045.0000    80000.0000   400477  513.26%
    102    84    80000.0000 17310    13045.0000    80000.0000   402539  513.26%
    105    85    80000.0000 16941    13045.0000    80000.0000   402625  513.26%
    108    91    80000.0000 15763    13045.0000    80000.0000   405012  513.26%
    111    96    80000.0000 17037    13045.0000    80000.0000   408961  513.26%
    114    87    80000.0000 16591    13045.0000    80000.0000   404505  513.26%
    116    89    80000.0000 16575    13045.0000    80000.0000   404978  513.26%
    118    95    80000.0000 16618    13045.0000    80000.0000   413945  513.26%
Elapsed time = 1771.46 sec. (2050657.52 ticks, tree = 74.09 MB, solutions = 3)
    120    96    80000.0000 16612    13045.0000    80000.0000   413969  513.26%
    122    92    80000.0000 16563    13045.0000    80000.0000   405477  513.26%
    125    93    80000.0000 16484    13045.0000    80000.0000   405883  513.26%
    129   101    80000.0000 16542    13045.0000    80000.0000   414190  513.26%
    131   102    80000.0000 16536    13045.0000    80000.0000   414211  513.26%
    134   104    80000.0000 16511    13045.0000    80000.0000   414270  513.26%
    137   106    80000.0000 16504    13045.0000    80000.0000   414277  513.26%
    138   107    80000.0000 16641    13045.0000    80000.0000   414454  513.26%
    142   108    80000.0000 16510    13045.0000    80000.0000   414466  513.26%
    146   109    80000.0000 16514    13045.0000    80000.0000   414623  513.26%
Elapsed time = 1800.27 sec. (2064436.67 ticks, tree = 135.49 MB, solutions = 3)
    147   110    80000.0000 16508    13045.0000    80000.0000   414635  513.26%
    148   111    80000.0000 16477    13045.0000    80000.0000   414729  513.26%

Clique cuts applied:  542
Implied bound cuts applied:  122
Flow cuts applied:  2
Mixed integer rounding cuts applied:  683
Zero-half cuts applied:  520
Gomory fractional cuts applied:  1

Root node processing (before b&c):
  Real time             = 1191.16 sec. (1764045.09 ticks)
Parallel b&c, 8 threads:
  Real time             =  609.29 sec. (315572.13 ticks)
  Sync time (average)   =  146.16 sec.
  Wait time (average)   =    0.00 sec.
                          ------------
Total (root+branch&cut) = 1800.46 sec. (2079617.23 ticks)

<<< solve


OBJECTIVE: 13045

<<< post process


<<< done

